22 2147483669 2147483672 2147483708 2147483761 2147483766 2147483789 
23 
24 
25 2147483669 2147483672 2147483708 2147483761 2147483789 
26 2147483669 2147483672 2147483708 2147483761 2147483789 
27 2147483669 2147483672 2147483708 2147483761 2147483789 
32 2147483669 2147483672 2147483708 2147483761 2147483789 
49 2147483648 2147483668 2147483671 2147483709 2147483710 2147483711 2147483754 2147483755 2147483790 
50 
51 
52 2147483648 2147483668 2147483671 2147483709 2147483710 2147483711 2147483754 2147483755 2147483790 
53 2147483648 2147483668 2147483671 2147483709 2147483710 2147483711 2147483723 2147483724 2147483754 2147483755 2147483790 
54 2147483648 2147483668 2147483671 2147483709 2147483710 2147483711 2147483724 2147483754 2147483755 2147483790 
57 2147483648 2147483668 2147483671 2147483709 2147483710 2147483711 2147483724 2147483754 2147483755 2147483790 
127 2147483648 2147483668 2147483671 2147483709 2147483710 2147483711 2147483754 2147483755 2147483790 
128 2147483648 2147483668 2147483671 2147483709 2147483710 2147483711 2147483754 2147483755 2147483790 
129 2147483648 2147483668 2147483671 2147483709 2147483710 2147483711 2147483754 2147483755 2147483790 
130 2147483648 2147483668 2147483671 2147483709 2147483710 2147483711 2147483754 2147483755 2147483790 
131 
132 
133 
134 
263 2147483669 2147483672 2147483708 2147483761 2147483789 
264 2147483669 2147483672 2147483708 2147483761 2147483789 
265 2147483669 2147483672 2147483708 2147483761 2147483789 
266 2147483669 2147483672 2147483708 2147483761 2147483789 
267 
268 
269 
270 
2147483648 2147483649 2147483651 2147483654 2147483668 2147483669 2147483708 2147483709 2147483710 2147483711 2147483713 2147483716 2147483717 2147483720 2147483721 2147483722 2147483723 2147483724 2147483766 2147483769 2147483770 2147483771 49 52 54 57 53 127 128 129 130 2147483649 2147483651 2147483654 2147483668 2147483669 2147483708 2147483709 2147483710 2147483711 2147483713 2147483716 2147483717 2147483720 2147483721 2147483722 2147483723 2147483724 2147483766 2147483769 2147483770 2147483771 
2147483649 2147483648 2147483648 2147483651 2147483654 2147483708 2147483710 2147483711 2147483720 2147483721 2147483722 2147483651 2147483654 2147483708 2147483710 2147483711 2147483720 2147483721 2147483722 
2147483651 2147483648 2147483649 2147483648 2147483649 2147483654 2147483708 2147483710 2147483711 2147483713 2147483717 2147483720 2147483721 2147483722 2147483769 2147483770 2147483771 2147483654 2147483708 2147483710 2147483711 2147483713 2147483717 2147483720 2147483721 2147483722 2147483769 2147483770 2147483771 
2147483654 2147483648 2147483649 2147483651 2147483648 2147483649 2147483651 2147483708 2147483710 2147483711 2147483713 2147483717 2147483720 2147483721 2147483722 2147483769 2147483770 2147483771 2147483708 2147483710 2147483711 2147483713 2147483717 2147483720 2147483721 2147483722 2147483769 2147483770 2147483771 
2147483668 2147483648 2147483648 2147483669 2147483671 2147483672 2147483693 2147483696 2147483708 2147483710 2147483711 2147483732 2147483735 2147483741 2147483744 2147483745 2147483746 2147483749 2147483750 2147483751 2147483753 2147483754 2147483755 2147483761 2147483766 2147483781 2147483789 2147483790 2147483791 2147483792 2147483793 2147483794 49 52 54 57 53 127 128 129 130 2147483669 2147483671 2147483672 2147483693 2147483696 2147483708 2147483710 2147483711 2147483732 2147483735 2147483741 2147483744 2147483745 2147483746 2147483749 2147483750 2147483751 2147483753 2147483754 2147483755 2147483761 2147483766 2147483781 2147483789 2147483790 2147483791 2147483792 2147483793 2147483794 
2147483669 2147483648 2147483668 2147483648 2147483668 2147483671 2147483672 2147483693 2147483696 2147483708 2147483710 2147483711 2147483732 2147483735 2147483741 2147483744 2147483745 2147483746 2147483749 2147483750 2147483751 2147483753 2147483754 2147483755 2147483761 2147483766 2147483781 2147483789 2147483790 2147483791 2147483792 2147483793 2147483794 22 25 27 32 26 263 264 265 266 2147483671 2147483672 2147483693 2147483696 2147483708 2147483710 2147483711 2147483732 2147483735 2147483741 2147483744 2147483745 2147483746 2147483749 2147483750 2147483751 2147483753 2147483754 2147483755 2147483761 2147483766 2147483781 2147483789 2147483790 2147483791 2147483792 2147483793 2147483794 
2147483671 2147483668 2147483669 2147483668 2147483669 2147483672 2147483693 2147483696 2147483708 2147483710 2147483711 2147483732 2147483735 2147483741 2147483744 2147483745 2147483746 2147483749 2147483750 2147483751 2147483753 2147483754 2147483755 2147483761 2147483781 2147483789 2147483790 2147483791 2147483792 2147483793 2147483794 49 52 54 57 53 127 128 129 130 2147483672 2147483693 2147483696 2147483708 2147483710 2147483711 2147483732 2147483735 2147483741 2147483744 2147483745 2147483746 2147483749 2147483750 2147483751 2147483753 2147483754 2147483755 2147483761 2147483781 2147483789 2147483790 2147483791 2147483792 2147483793 2147483794 
2147483672 2147483668 2147483669 2147483671 2147483668 2147483669 2147483671 2147483693 2147483696 2147483708 2147483710 2147483711 2147483741 2147483744 2147483745 2147483746 2147483749 2147483750 2147483751 2147483753 2147483754 2147483755 2147483761 2147483781 2147483789 2147483790 2147483791 2147483792 2147483793 2147483794 22 25 27 32 26 263 264 265 266 2147483693 2147483696 2147483708 2147483710 2147483711 2147483741 2147483744 2147483745 2147483746 2147483749 2147483750 2147483751 2147483753 2147483754 2147483755 2147483761 2147483781 2147483789 2147483790 2147483791 2147483792 2147483793 2147483794 
2147483693 2147483668 2147483669 2147483671 2147483672 2147483668 2147483669 2147483671 2147483672 2147483696 2147483708 2147483710 2147483711 2147483746 2147483754 2147483755 2147483761 2147483789 2147483790 2147483791 2147483792 2147483793 2147483696 2147483708 2147483710 2147483711 2147483746 2147483754 2147483755 2147483761 2147483789 2147483790 2147483791 2147483792 2147483793 
2147483696 2147483668 2147483669 2147483671 2147483672 2147483693 2147483668 2147483669 2147483671 2147483672 2147483693 2147483708 2147483710 2147483711 2147483754 2147483755 2147483761 2147483789 2147483790 2147483791 2147483792 2147483793 2147483708 2147483710 2147483711 2147483754 2147483755 2147483761 2147483789 2147483790 2147483791 2147483792 2147483793 
2147483708 2147483648 2147483649 2147483651 2147483654 2147483668 2147483669 2147483671 2147483672 2147483693 2147483696 2147483648 2147483649 2147483651 2147483654 2147483668 2147483669 2147483671 2147483672 2147483693 2147483696 2147483709 2147483710 2147483711 2147483712 2147483713 2147483716 2147483717 2147483720 2147483721 2147483722 2147483723 2147483724 2147483732 2147483735 2147483741 2147483744 2147483745 2147483746 2147483749 2147483750 2147483751 2147483753 2147483754 2147483755 2147483761 2147483766 2147483769 2147483770 2147483771 2147483781 2147483789 2147483790 2147483791 2147483792 2147483793 2147483794 26 22 25 27 32 263 264 265 266 2147483709 2147483710 2147483711 2147483712 2147483713 2147483716 2147483717 2147483720 2147483721 2147483722 2147483723 2147483724 2147483732 2147483735 2147483741 2147483744 2147483745 2147483746 2147483749 2147483750 2147483751 2147483753 2147483754 2147483755 2147483761 2147483766 2147483769 2147483770 2147483771 2147483781 2147483789 2147483790 2147483791 2147483792 2147483793 2147483794 
2147483709 2147483648 2147483708 2147483648 2147483708 2147483710 2147483711 2147483712 53 57 49 52 54 127 128 129 130 2147483710 2147483711 2147483712 
2147483710 2147483648 2147483649 2147483651 2147483654 2147483668 2147483669 2147483671 2147483672 2147483693 2147483696 2147483708 2147483709 2147483648 2147483649 2147483651 2147483654 2147483668 2147483669 2147483671 2147483672 2147483693 2147483696 2147483708 2147483709 2147483711 2147483712 2147483713 2147483716 2147483717 2147483720 2147483721 2147483722 2147483723 2147483724 2147483732 2147483735 2147483741 2147483744 2147483745 2147483746 2147483749 2147483750 2147483751 2147483753 2147483754 2147483755 2147483761 2147483766 2147483769 2147483770 2147483771 2147483781 2147483789 2147483790 2147483791 2147483792 2147483793 2147483794 54 49 52 57 53 127 128 129 130 2147483711 2147483712 2147483713 2147483716 2147483717 2147483720 2147483721 2147483722 2147483723 2147483724 2147483732 2147483735 2147483741 2147483744 2147483745 2147483746 2147483749 2147483750 2147483751 2147483753 2147483754 2147483755 2147483761 2147483766 2147483769 2147483770 2147483771 2147483781 2147483789 2147483790 2147483791 2147483792 2147483793 2147483794 
2147483711 2147483648 2147483649 2147483651 2147483654 2147483668 2147483669 2147483671 2147483672 2147483693 2147483696 2147483708 2147483709 2147483710 2147483648 2147483649 2147483651 2147483654 2147483668 2147483669 2147483671 2147483672 2147483693 2147483696 2147483708 2147483709 2147483710 2147483712 2147483713 2147483716 2147483717 2147483720 2147483721 2147483722 2147483723 2147483724 2147483732 2147483735 2147483741 2147483744 2147483745 2147483746 2147483749 2147483750 2147483751 2147483753 2147483754 2147483755 2147483761 2147483766 2147483769 2147483770 2147483771 2147483781 2147483789 2147483790 2147483791 2147483792 2147483793 2147483794 52 49 54 57 53 127 128 129 130 2147483712 2147483713 2147483716 2147483717 2147483720 2147483721 2147483722 2147483723 2147483724 2147483732 2147483735 2147483741 2147483744 2147483745 2147483746 2147483749 2147483750 2147483751 2147483753 2147483754 2147483755 2147483761 2147483766 2147483769 2147483770 2147483771 2147483781 2147483789 2147483790 2147483791 2147483792 2147483793 2147483794 
2147483712 2147483708 2147483709 2147483710 2147483711 2147483708 2147483709 2147483710 2147483711 
2147483713 2147483648 2147483651 2147483654 2147483708 2147483710 2147483711 2147483648 2147483651 2147483654 2147483708 2147483710 2147483711 2147483716 2147483717 2147483771 2147483716 2147483717 2147483771 
2147483716 2147483648 2147483708 2147483710 2147483711 2147483713 2147483648 2147483708 2147483710 2147483711 2147483713 
2147483717 2147483648 2147483651 2147483654 2147483708 2147483710 2147483711 2147483713 2147483648 2147483651 2147483654 2147483708 2147483710 2147483711 2147483713 2147483770 2147483771 2147483770 2147483771 
2147483720 2147483648 2147483649 2147483651 2147483654 2147483708 2147483710 2147483711 2147483648 2147483649 2147483651 2147483654 2147483708 2147483710 2147483711 
2147483721 2147483648 2147483649 2147483651 2147483654 2147483708 2147483710 2147483711 2147483648 2147483649 2147483651 2147483654 2147483708 2147483710 2147483711 
2147483722 2147483648 2147483649 2147483651 2147483654 2147483708 2147483710 2147483711 2147483648 2147483649 2147483651 2147483654 2147483708 2147483710 2147483711 
2147483723 2147483648 2147483708 2147483710 2147483711 2147483648 2147483708 2147483710 2147483711 2147483724 53 2147483724 
2147483724 2147483648 2147483708 2147483710 2147483711 2147483723 2147483648 2147483708 2147483710 2147483711 2147483723 54 57 53 
2147483732 2147483668 2147483669 2147483671 2147483708 2147483710 2147483711 2147483668 2147483669 2147483671 2147483708 2147483710 2147483711 
2147483735 2147483668 2147483669 2147483671 2147483708 2147483710 2147483711 2147483668 2147483669 2147483671 2147483708 2147483710 2147483711 2147483781 2147483789 2147483781 2147483789 
2147483741 2147483668 2147483669 2147483671 2147483672 2147483708 2147483710 2147483711 2147483668 2147483669 2147483671 2147483672 2147483708 2147483710 2147483711 2147483754 2147483755 2147483761 2147483789 2147483754 2147483755 2147483761 2147483789 
2147483744 2147483668 2147483669 2147483671 2147483672 2147483708 2147483710 2147483711 2147483668 2147483669 2147483671 2147483672 2147483708 2147483710 2147483711 2147483745 2147483754 2147483755 2147483761 2147483789 2147483790 2147483745 2147483754 2147483755 2147483761 2147483789 2147483790 
2147483745 2147483668 2147483669 2147483671 2147483672 2147483708 2147483710 2147483711 2147483744 2147483668 2147483669 2147483671 2147483672 2147483708 2147483710 2147483711 2147483744 2147483754 2147483755 2147483761 2147483789 2147483790 2147483754 2147483755 2147483761 2147483789 2147483790 
2147483746 2147483668 2147483669 2147483671 2147483672 2147483693 2147483708 2147483710 2147483711 2147483668 2147483669 2147483671 2147483672 2147483693 2147483708 2147483710 2147483711 2147483749 2147483750 2147483751 2147483753 2147483754 2147483755 2147483761 2147483789 2147483790 2147483791 2147483792 2147483793 2147483749 2147483750 2147483751 2147483753 2147483754 2147483755 2147483761 2147483789 2147483790 2147483791 2147483792 2147483793 
2147483749 2147483668 2147483669 2147483671 2147483672 2147483708 2147483710 2147483711 2147483746 2147483668 2147483669 2147483671 2147483672 2147483708 2147483710 2147483711 2147483746 2147483754 2147483755 2147483761 2147483789 2147483790 2147483754 2147483755 2147483761 2147483789 2147483790 
2147483750 2147483668 2147483669 2147483671 2147483672 2147483708 2147483710 2147483711 2147483746 2147483668 2147483669 2147483671 2147483672 2147483708 2147483710 2147483711 2147483746 2147483754 2147483755 2147483761 2147483789 2147483790 2147483754 2147483755 2147483761 2147483789 2147483790 
2147483751 2147483668 2147483669 2147483671 2147483672 2147483708 2147483710 2147483711 2147483746 2147483668 2147483669 2147483671 2147483672 2147483708 2147483710 2147483711 2147483746 2147483753 2147483754 2147483755 2147483761 2147483789 2147483790 2147483753 2147483754 2147483755 2147483761 2147483789 2147483790 
2147483753 2147483668 2147483669 2147483671 2147483672 2147483708 2147483710 2147483711 2147483746 2147483751 2147483668 2147483669 2147483671 2147483672 2147483708 2147483710 2147483711 2147483746 2147483751 2147483754 2147483755 2147483761 2147483789 2147483790 2147483754 2147483755 2147483761 2147483789 2147483790 
2147483754 2147483668 2147483669 2147483671 2147483672 2147483693 2147483696 2147483708 2147483710 2147483711 2147483741 2147483744 2147483745 2147483746 2147483749 2147483750 2147483751 2147483753 2147483668 2147483669 2147483671 2147483672 2147483693 2147483696 2147483708 2147483710 2147483711 2147483741 2147483744 2147483745 2147483746 2147483749 2147483750 2147483751 2147483753 2147483755 2147483761 2147483781 2147483789 2147483790 2147483791 2147483792 2147483793 2147483794 57 49 52 54 53 127 128 129 130 2147483755 2147483761 2147483781 2147483789 2147483790 2147483791 2147483792 2147483793 2147483794 
2147483755 2147483668 2147483669 2147483671 2147483672 2147483693 2147483696 2147483708 2147483710 2147483711 2147483741 2147483744 2147483745 2147483746 2147483749 2147483750 2147483751 2147483753 2147483754 2147483668 2147483669 2147483671 2147483672 2147483693 2147483696 2147483708 2147483710 2147483711 2147483741 2147483744 2147483745 2147483746 2147483749 2147483750 2147483751 2147483753 2147483754 2147483761 2147483781 2147483789 2147483790 2147483791 2147483792 2147483793 2147483794 52 49 54 57 53 127 128 129 130 2147483761 2147483781 2147483789 2147483790 2147483791 2147483792 2147483793 2147483794 
2147483761 2147483668 2147483669 2147483671 2147483672 2147483693 2147483696 2147483708 2147483710 2147483711 2147483741 2147483744 2147483745 2147483746 2147483749 2147483750 2147483751 2147483753 2147483754 2147483755 2147483668 2147483669 2147483671 2147483672 2147483693 2147483696 2147483708 2147483710 2147483711 2147483741 2147483744 2147483745 2147483746 2147483749 2147483750 2147483751 2147483753 2147483754 2147483755 2147483781 2147483789 2147483790 2147483791 2147483792 2147483793 2147483794 22 25 27 32 26 263 264 265 266 2147483781 2147483789 2147483790 2147483791 2147483792 2147483793 2147483794 
2147483766 2147483648 2147483668 2147483669 2147483708 2147483710 2147483711 2147483648 2147483668 2147483669 2147483708 2147483710 2147483711 22 
2147483769 2147483648 2147483651 2147483654 2147483708 2147483710 2147483711 2147483648 2147483651 2147483654 2147483708 2147483710 2147483711 2147483770 2147483771 2147483770 2147483771 
2147483770 2147483648 2147483651 2147483654 2147483708 2147483710 2147483711 2147483717 2147483769 2147483648 2147483651 2147483654 2147483708 2147483710 2147483711 2147483717 2147483769 2147483771 2147483771 
2147483771 2147483648 2147483651 2147483654 2147483708 2147483710 2147483711 2147483713 2147483717 2147483769 2147483770 2147483648 2147483651 2147483654 2147483708 2147483710 2147483711 2147483713 2147483717 2147483769 2147483770 
2147483781 2147483668 2147483669 2147483671 2147483672 2147483708 2147483710 2147483711 2147483735 2147483754 2147483755 2147483761 2147483668 2147483669 2147483671 2147483672 2147483708 2147483710 2147483711 2147483735 2147483754 2147483755 2147483761 2147483789 2147483790 2147483794 2147483789 2147483790 2147483794 
2147483789 2147483668 2147483669 2147483671 2147483672 2147483693 2147483696 2147483708 2147483710 2147483711 2147483735 2147483741 2147483744 2147483745 2147483746 2147483749 2147483750 2147483751 2147483753 2147483754 2147483755 2147483761 2147483781 2147483668 2147483669 2147483671 2147483672 2147483693 2147483696 2147483708 2147483710 2147483711 2147483735 2147483741 2147483744 2147483745 2147483746 2147483749 2147483750 2147483751 2147483753 2147483754 2147483755 2147483761 2147483781 2147483790 2147483791 2147483792 2147483793 2147483794 22 25 27 32 26 263 264 265 266 2147483790 2147483791 2147483792 2147483793 2147483794 
2147483790 2147483668 2147483669 2147483671 2147483672 2147483693 2147483696 2147483708 2147483710 2147483711 2147483744 2147483745 2147483746 2147483749 2147483750 2147483751 2147483753 2147483754 2147483755 2147483761 2147483781 2147483789 2147483668 2147483669 2147483671 2147483672 2147483693 2147483696 2147483708 2147483710 2147483711 2147483744 2147483745 2147483746 2147483749 2147483750 2147483751 2147483753 2147483754 2147483755 2147483761 2147483781 2147483789 2147483791 2147483792 2147483793 2147483794 49 52 54 57 53 127 128 129 130 2147483791 2147483792 2147483793 2147483794 
2147483791 2147483668 2147483669 2147483671 2147483672 2147483693 2147483696 2147483708 2147483710 2147483711 2147483746 2147483754 2147483755 2147483761 2147483789 2147483790 2147483668 2147483669 2147483671 2147483672 2147483693 2147483696 2147483708 2147483710 2147483711 2147483746 2147483754 2147483755 2147483761 2147483789 2147483790 2147483792 2147483793 2147483792 2147483793 
2147483792 2147483668 2147483669 2147483671 2147483672 2147483693 2147483696 2147483708 2147483710 2147483711 2147483746 2147483754 2147483755 2147483761 2147483789 2147483790 2147483791 2147483668 2147483669 2147483671 2147483672 2147483693 2147483696 2147483708 2147483710 2147483711 2147483746 2147483754 2147483755 2147483761 2147483789 2147483790 2147483791 2147483793 2147483793 
2147483793 2147483668 2147483669 2147483671 2147483672 2147483693 2147483696 2147483708 2147483710 2147483711 2147483746 2147483754 2147483755 2147483761 2147483789 2147483790 2147483791 2147483792 2147483668 2147483669 2147483671 2147483672 2147483693 2147483696 2147483708 2147483710 2147483711 2147483746 2147483754 2147483755 2147483761 2147483789 2147483790 2147483791 2147483792 
2147483794 2147483668 2147483669 2147483671 2147483672 2147483708 2147483710 2147483711 2147483754 2147483755 2147483761 2147483781 2147483789 2147483790 2147483668 2147483669 2147483671 2147483672 2147483708 2147483710 2147483711 2147483754 2147483755 2147483761 2147483781 2147483789 2147483790 
